100 10
723 732
741 183
495 209
123 801
496 724
297 284
690 681
284 516
495 250
812 312
714 328
692 316
731 543
293 514
622 625
575 273
460 580
429 794
552 433
726 751
707 30
374 612
645 528
257 160
496 99
685 584
784 544
651 651
487 324
943 937
602 420
439 372
712 810
404 641
837 230
970 977
564 943
298 575
491 429
521 720
542 694
704 270
665 716
513 281
612 567
645 760
818 707
757 633
710 831
459 46
561 858
338 563
570 653
517 497
598 805
640 83
764 756
841 743
633 608
516 390
920 479
531 426
276 355
837 765
523 106
225 652
464 314
455 841
388 163
767 759
370 224
700 367
610 863
671 469
696 833
302 802
286 613
918 489
846 635
328 979
454 604
357 51
897 793
724 732
368 290
538 277
720 269
692 393
343 598
257 784
298 927
445 159
387 792
791 635
570 355
567 705
431 307
864 734
774 583
196 735
